p cnf 50 40
1 11 21 -32 0 
-1 -31 0
-11 -31 0
-21 -31 0
2 12 22 -34 0 
-2 -33 0
-12 -33 0
-22 -33 0
3 13 23 -36 0 
-3 -35 0
-13 -35 0
-23 -35 0
4 14 24 -38 0 
-4 -37 0
-14 -37 0
-24 -37 0
5 15 25 -40 0 
-5 -39 0
-15 -39 0
-25 -39 0
6 16 26 -42 0 
-6 -41 0
-16 -41 0
-26 -41 0
7 17 27 -44 0 
-7 -43 0
-17 -43 0
-27 -43 0
8 18 28 -46 0 
-8 -45 0
-18 -45 0
-28 -45 0
9 19 29 -48 0 
-9 -47 0
-19 -47 0
-29 -47 0
10 20 30 -50 0 
-10 -49 0
-20 -49 0
-30 -49 0
